(declare-fun var0 () String)
(assert (RegexIn var0 (RegexConcat (RegexStar (RegexUnion (Str2Reg "R") (Str2Reg "SS"))) (RegexConcat (RegexUnion (RegexUnion (Str2Reg "O") (Str2Reg "PP")) (RegexStar (Str2Reg "Q"))) (RegexConcat (RegexPlus (RegexStar (Str2Reg "NN"))) (RegexConcat (RegexPlus (RegexStar (Str2Reg "MM"))) (RegexConcat (RegexUnion (RegexPlus (Str2Reg "K")) (RegexPlus (Str2Reg "LL"))) (RegexConcat (RegexStar (RegexStar (Str2Reg "JJJ"))) (RegexConcat (RegexPlus (RegexStar (Str2Reg "II"))) (RegexConcat (RegexPlus (RegexPlus (Str2Reg "HHH"))) (RegexConcat (RegexPlus (RegexStar (Str2Reg "GGG"))) (RegexConcat (RegexUnion (RegexUnion (Str2Reg "D") (Str2Reg "E")) (RegexStar (Str2Reg "FFF"))) (RegexConcat (RegexPlus (RegexUnion (Str2Reg "BB") (Str2Reg "C"))) (RegexConcat (RegexUnion (RegexUnion (Str2Reg "xx") (Str2Reg "y")) (RegexUnion (Str2Reg "z") (Str2Reg "A"))) (RegexConcat (RegexPlus (RegexUnion (Str2Reg "vv") (Str2Reg "ww"))) (RegexConcat (RegexStar (RegexStar (Str2Reg "uuu"))) (RegexConcat (RegexStar (RegexStar (Str2Reg "tt"))) (RegexConcat (RegexUnion (RegexStar (Str2Reg "r")) (RegexPlus (Str2Reg "ss"))) (RegexConcat (RegexUnion (RegexStar (Str2Reg "ppp")) (RegexStar (Str2Reg "qqq"))) (RegexConcat (RegexPlus (RegexPlus (Str2Reg "o"))) (RegexConcat (RegexPlus (RegexUnion (Str2Reg "mm") (Str2Reg "n"))) (RegexConcat (RegexUnion (RegexStar (Str2Reg "jjj")) (RegexUnion (Str2Reg "kk") (Str2Reg "l"))) (RegexConcat (RegexStar (RegexPlus (Str2Reg "i"))) (RegexConcat (RegexUnion (RegexUnion (Str2Reg "f") (Str2Reg "gg")) (RegexPlus (Str2Reg "hhh"))) (RegexConcat (RegexUnion (RegexPlus (Str2Reg "cc")) (RegexUnion (Str2Reg "ddd") (Str2Reg "eee"))) (RegexConcat (RegexStar (RegexPlus (Str2Reg "b"))) (RegexConcat (RegexUnion (RegexStar (Str2Reg "888")) (RegexUnion (Str2Reg "999") (Str2Reg "aa"))) (RegexConcat (RegexStar (RegexUnion (Str2Reg "6") (Str2Reg "777"))) (RegexConcat (RegexUnion (RegexStar (Str2Reg "33")) (RegexUnion (Str2Reg "444") (Str2Reg "555"))) (RegexConcat (RegexPlus (RegexUnion (Str2Reg "111") (Str2Reg "222"))) (RegexStar (RegexStar (Str2Reg "0")))))))))))))))))))))))))))))))))
(check-sat)